
Gurobi 11.0.3 (linux64) logging started Thu Apr 16 05:48:50 2026

Set parameter LogFile to value "tree/results/blsc/blsc_depth-3_run-2/Full MIP/LogFile_FullModel.txt"
Gurobi Optimizer version 11.0.3 build v11.0.3rc0 (linux64 - "CentOS Linux 7 (Core)")

CPU model: Intel(R) Xeon(R) Platinum 8260 CPU @ 2.40GHz, instruction set [SSE2|AVX|AVX2|AVX512]
Thread count: 96 physical cores, 192 logical processors, using up to 32 threads

Optimize a model with 37570 rows, 26320 columns and 219183 nonzeros
Model fingerprint: 0x043613ca
Model has 3744 general constraints
Variable types: 15064 continuous, 11256 integer (11256 binary)
Coefficient statistics:
  Matrix range     [2e-03, 1e+04]
  Objective range  [2e-03, 1e+04]
  Bounds range     [1e+00, 5e+02]
  RHS range        [1e-04, 5e+02]

User MIP start produced solution with objective -154399 (0.08s)
Loaded user MIP start with objective -154399

Presolve added 3736 rows and 11232 columns
Presolve time: 0.22s
Presolved: 41306 rows, 37552 columns, 241624 nonzeros
Presolved model has 11232 SOS constraint(s)
Variable types: 15064 continuous, 22488 integer (22488 binary)

Deterministic concurrent LP optimizer: primal and dual simplex (primal and dual model)
Showing primal log only...

Root relaxation presolved: 41299 rows, 37545 columns, 241624 nonzeros

Concurrent spin time: 0.98s (can be avoided by choosing Method=3)

Solved with primal simplex

Root relaxation: objective 1.000000e+00, 6890 iterations, 2.28 seconds (2.14 work units)
Total elapsed time = 7.02s (DegenMoves)

    Nodes    |    Current Node    |     Objective Bounds      |     Work
 Expl Unexpl |  Obj  Depth IntInf | Incumbent    BestBd   Gap | It/Node Time

     0     0    1.00000    0 2138 -154399.23    1.00000   100%     -    7s
     0     2    1.00000    0 2138 -154399.23    1.00000   100%     -   30s
H    1     4                    -111199.2585    1.00000   100%   0.0   33s
H    2     4                    -88599.24359    1.00000   100%   1.0   33s
    15    32    1.00000    4 2142 -88599.244    1.00000   100%  33.3   36s
H   31    64                       0.6773504    1.00000  47.6%   261   85s
    63    96    1.00000    6 2122    0.67735    1.00000  47.6%   471  115s
    95   128    1.00000    7 2123    0.67735    1.00000  47.6%   358  743s
   127   160    1.00000    8 2123    0.67735    1.00000  47.6%   295  814s
   159   192    1.00000    9 2120    0.67735    1.00000  47.6%   260  984s
   191   224    1.00000   10 2435    0.67735    1.00000  47.6%   322 1058s
   223   440    1.00000   11 2467    0.67735    1.00000  47.6%  2633 1320s
   439   827    1.00000   16 2342    0.67735    1.00000  47.6%  1490 1386s
   826  1405    1.00000   21 2809    0.67735    1.00000  47.6%  2480 1730s
H 1140  1405                       0.7136752    1.00000  40.1%  2372 1730s
  1404  3745    1.00000   27 2805    0.71368    1.00000  40.1%  2294 2218s
  3744  5786    1.00000   47 3087    0.71368    1.00000  40.1%  2196 2546s
H 5161  5786                       0.7307692    1.00000  36.8%  2124 2546s
  5785  8212    1.00000   69 3110    0.73077    1.00000  36.8%  2115 2867s
  8211 10661    1.00000   70 1222    0.73077    1.00000  36.8%  2022 3422s
 10662 13242    1.00000  100 3124    0.73077    1.00000  36.8%  1962 3602s
H13594 13242                       0.7735043    1.00000  29.3%  1833 3602s

Explored 13827 nodes (25354362 simplex iterations) in 3602.74 seconds (3681.09 work units)
Thread count was 32 (of 192 available processors)

Solution count 7: 0.773504 0.730769 0.713675 ... -154399

Time limit reached
Best objective 7.735042735043e-01, best bound 1.000000000000e+00, gap 29.2818%

User-callback calls 1785850, time in user-callback 8.80 sec
